1	2	4
1	3	2
2	3	1
2	5	7
2	4	12
3	6	2
3	19	6
4	5	2
4	6	32
5	6	6
6	20	4
6	15	2
7	11	10
7	12	7
7	20	9
7	19	2
7	18	6
7	17	10
8	6	8
8	1	11
9	2	12
9	19	2
9	20	1
10	1	7
11	2	23
12	3	2
12	4	6
12	5	21
12	6	4
13	7	61
13	12	4
14	13	14
14	12	1
14	1	20
15	1	5
16	12	2
16	20	21
17	20	2
17	15	1
18	1	17
19	10	1
19	11	7
19	12	7
19	18	7
19	20	8
20	1	8
20	2	8
20	10	8
20	11	8
20	12	8
